c Sudoku solution
p cnf 729 0
128 0
141 0
189 0
211 0
236 0
265 0
327 0
334 0
352 0
363 0
381 0
416 0
447 0
514 0
545 0
587 0
598 0
695 0
396 0
749 0
348 0
244 0
259 0
319 0
375 0
768 0
824 0
935 0
115 0
425 0
951 0
967 0
754 0
855 0
785 0
157 0
166 0
862 0
642 0
988 0
278 0
297 0
999 0
974 0
839 0
818 0
877 0
891 0
194 0
493 0
458 0
638 0
617 0
737 0
721 0
926 0
776 0
792 0
883 0
713 0
912 0
846 0
943 0
173 0
282 0
132 0
223 0
522 0
431 0
533 0
629 0
556 0
653 0
472 0
484 0
686 0
671 0
579 0
469 0
664 0
561 0
